NAME : CMT14X
TYPE : MVRPB
DIMENSION : 101
VEHICLES : 10
CAPACITY : 20000
DISTANCE : 1040
EDGE_WEIGHT_TYPE : EXACT_2D
NODE_COORD_SECTION
1 40 50
2 45 68
3 45 70
4 42 66
5 42 68
6 42 65
7 40 69
8 40 66
9 38 68
10 38 70
11 35 66
12 35 69
13 25 85
14 22 75
15 22 85
16 20 80
17 20 85
18 18 75
19 15 75
20 15 80
21 30 50
22 30 52
23 28 52
24 28 55
25 25 50
26 25 52
27 25 55
28 23 52
29 23 55
30 20 50
31 20 55
32 10 35
33 10 40
34 8 40
35 8 45
36 5 35
37 5 45
38 2 40
39 0 40
40 0 45
41 35 30
42 35 32
43 33 32
44 33 35
45 32 30
46 30 30
47 30 32
48 30 35
49 28 30
50 28 35
51 26 32
52 25 30
53 25 35
54 44 5
55 42 10
56 42 15
57 40 5
58 40 15
59 38 5
60 38 15
61 35 5
62 50 30
63 50 35
64 50 40
65 48 30
66 48 40
67 47 35
68 47 40
69 45 30
70 45 35
71 95 30
72 95 35
73 53 30
74 92 30
75 53 35
76 45 65
77 90 35
78 88 30
79 88 35
80 87 30
81 85 25
82 85 35
83 75 55
84 72 55
85 70 58
86 68 60
87 66 55
88 65 55
89 65 60
90 63 58
91 60 55
92 60 60
93 67 85
94 65 85
95 65 82
96 62 80
97 60 80
98 60 85
99 58 75
100 55 80
101 55 85
PICKUP_AND_DELIVERY_SECTION
1 0 0 10000000 90 0 0
2 0 0 10000000 90 338 662
3 0 0 10000000 90 1071 1929
4 0 0 10000000 90 364 636
5 0 0 10000000 90 382 618
6 0 0 10000000 90 354 646
7 0 0 10000000 90 841 1159
8 0 0 10000000 90 788 1212
9 0 0 10000000 90 882 1118
10 0 0 10000000 90 457 543
11 0 0 10000000 90 470 530
12 0 0 10000000 90 493 507
13 0 0 10000000 90 1412 588
14 0 0 10000000 90 2120 880
15 0 0 10000000 90 741 259
16 0 0 10000000 90 3000 1000
17 0 0 10000000 90 3059 941
18 0 0 10000000 90 1520 480
19 0 0 10000000 90 1600 400
20 0 0 10000000 90 813 188
21 0 0 10000000 90 400 600
22 0 0 10000000 90 846 1154
23 0 0 10000000 90 923 1077
24 0 0 10000000 90 491 509
25 0 0 10000000 90 500 500
26 0 0 10000000 90 2077 1923
27 0 0 10000000 90 545 455
28 0 0 10000000 90 558 442
29 0 0 10000000 90 1164 836
30 0 0 10000000 90 600 400
31 0 0 10000000 90 636 364
32 0 0 10000000 90 1429 571
33 0 0 10000000 90 2250 750
34 0 0 10000000 90 3200 800
35 0 0 10000000 90 1644 356
36 0 0 10000000 90 857 143
37 0 0 10000000 90 889 111
38 0 0 10000000 90 1900 100
39 0 0 10000000 90 3000 0
40 0 0 10000000 90 2000 0
41 0 0 10000000 90 143 857
42 0 0 10000000 90 86 914
43 0 0 10000000 90 61 1939
44 0 0 10000000 90 57 943
45 0 0 10000000 90 63 938
46 0 0 10000000 90 0 1000
47 0 0 10000000 90 188 2813
48 0 0 10000000 90 143 857
49 0 0 10000000 90 67 933
50 0 0 10000000 90 200 800
51 0 0 10000000 90 188 813
52 0 0 10000000 90 167 833
53 0 0 10000000 90 286 714
54 0 0 10000000 90 1773 227
55 0 0 10000000 90 3048 952
56 0 0 10000000 90 643 357
57 0 0 10000000 90 2625 375
58 0 0 10000000 90 2500 1500
59 0 0 10000000 90 2605 395
60 0 0 10000000 90 605 395
61 0 0 10000000 90 1714 286
62 0 0 10000000 90 400 600
63 0 0 10000000 90 600 1400
64 0 0 10000000 90 1000 4000
65 0 0 10000000 90 375 625
66 0 0 10000000 90 167 833
67 0 0 10000000 90 255 745
68 0 0 10000000 90 149 851
69 0 0 10000000 90 333 667
70 0 0 10000000 90 222 778
71 0 0 10000000 90 2053 947
72 0 0 10000000 90 1263 737
73 0 0 10000000 90 434 566
74 0 0 10000000 90 674 326
75 0 0 10000000 90 1698 3302
76 0 0 10000000 90 615 1385
77 0 0 10000000 90 611 389
78 0 0 10000000 90 659 341
79 0 0 10000000 90 1205 795
80 0 0 10000000 90 655 345
81 0 0 10000000 90 706 294
82 0 0 10000000 90 1765 1235
83 0 0 10000000 90 533 1467
84 0 0 10000000 90 236 764
85 0 0 10000000 90 343 1657
86 0 0 10000000 90 353 2647
87 0 0 10000000 90 167 833
88 0 0 10000000 90 308 1692
89 0 0 10000000 90 231 2769
90 0 0 10000000 90 79 921
91 0 0 10000000 90 83 917
92 0 0 10000000 90 0 1000
93 0 0 10000000 90 424 1576
94 0 0 10000000 90 941 3059
95 0 0 10000000 90 207 793
96 0 0 10000000 90 675 2325
97 0 0 10000000 90 250 750
98 0 0 10000000 90 882 2118
99 0 0 10000000 90 453 1547
100 0 0 10000000 90 313 688
101 0 0 10000000 90 706 1294
DEPOT_SECTION
1 
-1
EOF
